1000
100 100
1 70 619
2 70 798
3 70 482
4 70 218
5 70 18
6 70 677
7 70 523
8 70 28
9 70 898
10 70 991
11 70 161
12 70 643
13 70 75
14 70 72
15 70 190
16 69 773
17 69 861
18 69 91
19 69 548
20 69 669
21 69 652
22 69 190
23 69 822
24 69 91
25 69 391
26 69 160
27 69 901
28 69 300
29 69 373
30 69 251
31 69 809
32 69 140
33 69 250
34 69 887
35 68 687
36 68 893
37 68 752
38 68 400
39 68 150
40 68 30
41 68 888
42 68 542
43 68 464
44 67 984
45 67 98
46 67 322
47 67 274
48 67 689
49 67 256
50 67 113
51 67 0
52 67 758
53 67 278
54 67 651
55 67 945
56 67 10
57 67 488
58 67 573
59 67 457
60 67 901
61 67 981
62 67 720
63 67 935
64 67 102
65 67 923
66 67 863
67 67 213
68 66 753
69 66 182
70 66 233
71 66 738
72 66 675
73 66 793
74 66 455
75 66 80
76 66 473
77 66 827
78 66 100
79 66 56
80 66 492
81 66 296
82 66 859
83 66 547
84 66 455
85 66 692
86 65 187
87 65 614
88 65 797
89 65 66
90 65 475
91 65 358
92 65 620
93 65 189
94 65 83
95 65 656
96 65 645
97 65 462
98 65 3
99 65 168
100 65 454
101 65 111
102 64 784
103 64 483
104 64 860
105 64 617
106 64 252
107 64 519
108 64 929
109 64 907
110 64 780
111 64 60
112 64 893
113 64 440
114 64 181
115 64 784
116 64 519
117 64 974
118 63 708
119 63 314
120 63 477
121 63 51
122 63 534
123 63 2
124 63 906
125 63 440
126 63 51
127 62 518
128 62 231
129 62 162
130 62 443
131 62 822
132 62 148
133 62 452
134 62 528
135 62 445
136 62 616
137 62 898
138 62 892
139 62 681
140 62 39
141 62 121
142 62 275
143 62 852
144 62 213
145 62 927
146 62 230
147 62 521
148 61 829
149 61 406
150 61 852
151 61 932
152 61 843
153 61 486
154 61 994
155 61 797
156 61 825
157 61 202
158 61 94
159 61 859
160 61 790
161 61 500
162 61 253
163 61 411
164 61 62
165 61 101
166 61 918
167 61 634
168 60 495
169 60 570
170 60 907
171 60 653
172 60 432
173 60 186
174 60 667
175 60 583
176 60 72
177 60 681
178 60 925
179 60 926
180 60 479
181 60 7
182 60 223
183 59 952
184 59 207
185 59 90
186 59 198
187 59 382
188 59 362
189 59 725
190 59 508
191 59 211
192 59 777
193 59 616
194 59 311
195 59 875
196 59 450
197 59 392
198 58 793
199 58 387
200 58 560
201 58 248
202 58 930
203 58 927
204 58 293
205 58 700
206 58 136
207 58 453
208 58 394
209 58 441
210 58 884
211 58 667
212 58 20
213 57 350
214 57 931
215 57 768
216 57 651
217 57 621
218 57 684
219 57 499
220 57 427
221 57 993
222 57 102
223 57 138
224 57 370
225 57 835
226 57 982
227 57 193
228 57 258
229 56 819
230 56 46
231 56 92
232 56 535
233 56 358
234 56 450
235 56 202
236 56 214
237 56 269
238 56 703
239 56 269
240 56 695
241 56 339
242 56 553
243 56 908
244 55 618
245 55 850
246 55 574
247 55 338
248 55 767
249 55 929
250 55 387
251 55 473
252 55 659
253 55 925
254 55 295
255 55 209
256 55 864
257 55 148
258 55 202
259 55 322
260 55 272
261 55 63
262 55 675
263 55 59
264 54 933
265 54 442
266 54 424
267 54 39
268 54 998
269 54 291
270 54 918
271 54 784
272 54 84
273 54 619
274 54 740
275 53 132
276 53 526
277 53 775
278 53 833
279 53 299
280 53 115
281 53 883
282 53 847
283 53 852
284 53 401
285 53 48
286 53 672
287 53 930
288 53 89
289 53 159
290 53 479
291 52 792
292 52 234
293 52 260
294 52 830
295 52 577
296 52 370
297 52 280
298 52 443
299 52 427
300 52 48
301 52 799
302 52 883
303 52 875
304 52 656
305 52 946
306 52 13
307 52 906
308 51 492
309 51 779
310 51 334
311 51 740
312 51 15
313 51 130
314 51 516
315 51 38
316 51 576
317 51 153
318 51 799
319 51 500
320 51 875
321 50 301
322 50 153
323 50 23
324 50 98
325 50 134
326 50 771
327 50 435
328 50 393
329 50 114
330 50 83
331 50 839
332 50 58
333 49 719
334 49 504
335 49 198
336 49 277
337 49 534
338 49 155
339 49 411
340 49 21
341 49 895
342 49 67
343 49 882
344 49 416
345 49 692
346 49 363
347 49 717
348 49 148
349 49 781
350 48 876
351 48 408
352 48 771
353 48 262
354 48 775
355 48 960
356 48 92
357 48 83
358 48 300
359 48 354
360 48 107
361 47 757
362 47 79
363 47 932
364 47 738
365 47 832
366 47 341
367 47 480
368 47 412
369 47 477
370 47 919
371 47 800
372 47 924
373 47 246
374 47 240
375 47 890
376 46 736
377 46 99
378 46 837
379 46 399
380 46 775
381 46 672
382 46 643
383 46 365
384 46 928
385 46 631
386 46 246
387 46 743
388 46 884
389 46 370
390 46 159
391 46 734
392 45 636
393 45 640
394 45 587
395 45 209
396 45 817
397 45 692
398 45 363
399 45 619
400 45 565
401 45 718
402 45 181
403 45 489
404 45 779
405 45 717
406 45 315
407 45 928
408 45 405
409 44 109
410 44 824
411 44 807
412 44 773
413 44 943
414 44 433
415 44 354
416 44 317
417 44 330
418 44 272
419 44 797
420 44 488
421 44 0
422 44 201
423 44 853
424 43 731
425 43 19
426 43 465
427 43 806
428 43 828
429 43 393
430 43 233
431 43 991
432 43 852
433 43 480
434 43 741
435 43 853
436 43 62
437 42 324
438 42 989
439 42 105
440 42 692
441 42 694
442 42 247
443 42 100
444 42 505
445 42 773
446 42 64
447 42 718
448 42 875
449 42 778
450 42 126
451 42 744
452 42 814
453 41 699
454 41 989
455 41 727
456 41 240
457 41 812
458 41 948
459 41 202
460 41 667
461 41 455
462 41 355
463 41 980
464 41 697
465 41 491
466 41 847
467 41 210
468 41 498
469 41 801
470 41 125
471 41 334
472 40 949
473 40 140
474 40 313
475 40 787
476 40 425
477 40 551
478 40 732
479 40 514
480 40 781
481 40 705
482 40 499
483 40 577
484 40 207
485 40 136
486 39 763
487 39 492
488 39 124
489 39 671
490 39 473
491 39 745
492 39 647
493 39 400
494 39 223
495 39 548
496 39 422
497 39 854
498 39 36
499 39 198
500 39 177
501 39 864
502 39 525
503 39 595
504 39 463
505 38 119
506 38 952
507 38 785
508 38 372
509 38 786
510 38 28
511 38 82
512 38 14
513 38 26
514 38 891
515 38 79
516 37 11
517 37 810
518 37 777
519 37 597
520 37 789
521 37 554
522 37 374
523 37 607
524 37 668
525 37 523
526 37 533
527 37 112
528 37 424
529 36 635
530 36 478
531 36 278
532 36 803
533 36 139
534 36 854
535 36 335
536 36 501
537 36 343
538 36 665
539 36 918
540 36 857
541 36 855
542 36 40
543 36 517
544 36 799
545 36 36
546 36 789
547 36 370
548 36 765
549 36 133
550 36 220
551 36 305
552 36 794
553 36 191
554 35 129
555 35 275
556 35 803
557 35 732
558 35 73
559 35 250
560 35 852
561 35 231
562 35 579
563 35 629
564 35 768
565 35 357
566 35 926
567 35 867
568 34 764
569 34 786
570 34 330
571 34 914
572 34 205
573 34 892
574 34 934
575 34 804
576 34 235
577 34 66
578 34 104
579 34 422
580 34 377
581 34 866
582 34 91
583 34 644
584 34 288
585 33 422
586 33 613
587 33 986
588 33 878
589 33 780
590 33 213
591 33 46
592 33 310
593 33 216
594 33 344
595 33 997
596 33 230
597 33 430
598 33 311
599 33 787
600 33 964
601 32 702
602 32 994
603 32 945
604 32 999
605 32 342
606 32 629
607 32 568
608 32 622
609 31 107
610 31 526
611 31 573
612 31 702
613 31 420
614 31 977
615 31 124
616 31 916
617 31 216
618 31 404
619 31 608
620 31 200
621 31 440
622 31 413
623 31 576
624 31 859
625 31 418
626 31 895
627 31 586
628 31 892
629 31 290
630 31 508
631 30 609
632 30 127
633 30 100
634 30 808
635 30 420
636 30 26
637 30 953
638 30 601
639 30 845
640 30 3
641 30 885
642 30 824
643 30 633
644 30 551
645 30 746
646 30 292
647 30 287
648 30 807
649 30 482
650 29 302
651 29 39
652 29 563
653 29 425
654 29 575
655 29 667
656 29 729
657 29 531
658 29 166
659 29 560
660 29 78
661 29 132
662 29 914
663 29 807
664 29 734
665 29 951
666 29 338
667 29 709
668 29 893
669 28 700
670 28 625
671 28 730
672 28 355
673 28 780
674 28 479
675 28 496
676 28 149
677 28 724
678 28 129
679 28 141
680 28 404
681 28 166
682 28 628
683 28 4
684 28 610
685 28 871
686 28 463
687 28 517
688 28 131
689 28 929
690 27 126
691 27 510
692 27 392
693 27 923
694 27 141
695 27 687
696 27 967
697 27 894
698 27 298
699 27 649
700 27 966
701 27 912
702 27 450
703 27 777
704 27 979
705 27 393
706 27 75
707 27 750
708 27 618
709 26 528
710 26 240
711 26 231
712 26 334
713 26 475
714 26 351
715 26 309
716 26 369
717 26 477
718 26 691
719 26 523
720 25 334
721 25 733
722 25 687
723 25 410
724 25 967
725 25 422
726 25 525
727 25 320
728 25 845
729 25 907
730 25 177
731 25 681
732 25 446
733 25 982
734 25 491
735 25 554
736 25 659
737 24 587
738 24 539
739 24 400
740 24 935
741 24 237
742 24 83
743 24 844
744 24 640
745 24 716
746 24 682
747 24 650
748 24 663
749 24 680
750 23 534
751 23 316
752 23 24
753 23 595
754 23 547
755 23 393
756 23 75
757 23 989
758 23 328
759 23 710
760 23 888
761 23 535
762 23 954
763 23 331
764 23 297
765 23 380
766 23 640
767 23 237
768 22 196
769 22 548
770 22 202
771 22 436
772 22 215
773 22 619
774 22 799
775 22 658
776 22 635
777 22 732
778 22 311
779 22 284
780 22 351
781 22 56
782 22 342
783 22 441
784 22 682
785 22 893
786 22 852
787 21 153
788 21 722
789 21 730
790 21 679
791 21 190
792 21 231
793 21 58
794 21 123
795 21 74
796 21 935
797 21 381
798 21 980
799 21 402
800 21 73
801 21 336
802 21 383
803 20 34
804 20 835
805 20 451
806 20 199
807 20 91
808 20 120
809 20 205
810 20 513
811 20 697
812 20 391
813 20 768
814 20 234
815 20 318
816 20 162
817 20 129
818 20 367
819 20 365
820 19 338
821 19 477
822 19 908
823 19 67
824 19 582
825 19 850
826 19 72
827 19 485
828 19 770
829 19 876
830 19 934
831 19 479
832 19 959
833 19 464
834 19 971
835 19 521
836 19 793
837 19 735
838 19 388
839 19 862
840 19 425
841 19 304
842 19 491
843 18 602
844 18 100
845 18 218
846 18 326
847 18 148
848 18 401
849 18 863
850 18 678
851 18 500
852 18 464
853 18 465
854 18 255
855 18 685
856 18 697
857 18 986
858 17 984
859 17 510
860 17 522
861 17 504
862 17 946
863 17 113
864 17 648
865 17 83
866 17 178
867 17 580
868 17 944
869 17 693
870 17 685
871 17 687
872 17 455
873 17 671
874 16 913
875 16 340
876 16 983
877 16 640
878 16 946
879 16 915
880 16 475
881 16 806
882 16 723
883 16 398
884 16 979
885 16 833
886 16 228
887 16 208
888 16 397
889 16 264
890 16 961
891 16 315
892 16 883
893 16 822
894 16 231
895 16 43
896 16 787
897 16 832
898 16 842
899 16 932
900 15 688
901 15 712
902 15 963
903 15 644
904 15 462
905 15 919
906 15 222
907 15 480
908 15 288
909 15 361
910 15 890
911 15 148
912 15 629
913 15 119
914 15 692
915 15 653
916 15 606
917 15 757
918 14 173
919 14 18
920 14 231
921 14 543
922 14 853
923 14 611
924 14 352
925 14 541
926 14 709
927 14 589
928 14 567
929 14 962
930 14 51
931 14 819
932 13 424
933 13 104
934 13 869
935 13 0
936 13 273
937 13 854
938 13 213
939 13 686
940 13 156
941 13 515
942 13 150
943 13 791
944 13 88
945 13 478
946 13 971
947 13 750
948 13 258
949 13 898
950 13 840
951 13 634
952 13 580
953 13 472
954 12 118
955 12 677
956 12 572
957 12 301
958 12 706
959 12 387
960 12 54
961 12 721
962 12 146
963 12 226
964 12 390
965 12 55
966 12 738
967 12 7
968 12 937
969 12 56
970 12 487
971 12 532
972 12 269
973 12 136
974 12 219
975 12 745
976 12 797
977 12 894
978 11 580
979 11 357
980 11 560
981 11 495
982 11 247
983 11 746
984 11 487
985 11 611
986 11 284
987 11 332
988 11 150
989 11 825
990 10 807
991 10 397
992 10 817
993 10 13
994 10 998
995 10 414
996 10 108
997 10 506
998 10 510
999 10 808
1000 10 835
